db/inputs/23537169852671473322903166842271930985.smt2
(set-logic QF_FP)
(declare-const x0 (_ FloatingPoint 11 53))
(declare-const x1 (_ FloatingPoint 11 53))
(declare-const x2 (_ FloatingPoint 11 53))
(declare-const x3 (_ FloatingPoint 11 53))
(declare-const x4 (_ FloatingPoint 11 53))
(declare-const x5 (_ FloatingPoint 11 53))
(declare-const x6 (_ FloatingPoint 11 53))
(declare-const x7 (_ FloatingPoint 11 53))
(declare-const x8 (_ FloatingPoint 11 53))
(assert (fp.eq (fp.mul RNE x4 x5) (fp.sub RNE x3 x3)))
(assert (fp.lt (fp.add RNE x8 x2) (fp.mul RNE x2 x4)))
(assert (fp.geq (fp.neg x8) (fp.sub RNE x4 x1)))
(assert (fp.leq (fp.div RNE x2 x8) (fp.mul RNE x5 x1)))
(assert (fp.leq (fp.sub RNE x1 x3) (fp.div RNE x5 x4)))
(assert (fp.gt (fp.div RNE x0 x6) (fp.sub RNE x0 x8)))
(assert (fp.eq (fp.neg x0) (fp.neg x0)))
(assert (fp.geq (fp.neg x5) (fp.neg x5)))
(assert (fp.gt (fp.neg x2) (fp.div RNE x0 x6)))
(assert (fp.lt (fp.mul RNE x1 x3) (fp.div RNE x8 x1)))
(assert (fp.geq (fp.div RNE x1 x6) (fp.mul RNE x6 x0)))
(assert (fp.leq (fp.div RNE x2 x3) (fp.sub RNE x2 x8)))
(assert (fp.gt (fp.mul RNE x7 x0) (fp.sub RNE x2 x8)))
(assert (fp.gt (fp.add RNE x7 x3) (fp.neg x8)))
(assert (fp.leq (fp.div RNE x2 x8) (fp.add RNE x6 x2)))
(check-sat)
