db/data/23537169852671473322903166842271930985.z3.out
-------------------
2500.123955089
